p cnf 19 10
e 1 0
a 2 0
e 3 0
a 4 0
e 5 0
a 6 0
e 7 0
a 8 9 10 11 0
e 12 0
a 13 0
e 14 0
a 15 0
e 16 17 18 0
a 19 0
10 19 -9 0
-9 12 19 5 18 0
-15 -16 10 6 11 0
8 3 0
7 5 -8 -9 16 0
-4 2 -15 13 0
15 5 -14 0
15 9 10 -14 8 0
-1 8 0
11 6 -8 0
